21
269 357 
268 275 
252 366 
274 450 414 
273 272 269 
275 363 298 
252 410 298 
303 347 473 
495 307 444 
419 273 366 
254 259 472 
292 299 439 
261 430 287 
258 262 351 
271 272 350 
255 445 366 
372 355 315 
395 370 288 
350 252 263 
361 474 320 
251 466 283 
